CMD:
./solvers/bin/cadical --plain --no-reduce -t 1600 ./data/cnfs//pdtpmsblackjack/pdtpmsblackjack.90.cnf

c --- [ banner ] -------------------------------------------------------------
c 
c CaDiCaL SAT Solver
c Copyright (c) 2016-2024
c A. Biere, M. Fleury, N. Froleyks, K. Fazekas, F. Pollitt, T. Faller
c JKU Linz, University of Freiburg, TU Wien
c 
c Version 2.1.3 5296d3d2a9bf48c154ab2acb5e44625776d821bf
c g++ (Gentoo 12.3.1_p20230526 p2) 12.3.1 20230526 -Wall -Wextra -O3 -DNDEBUG
c Sat Aug 9 07:26:21 PDT 2025 Linux cedar2.int.cedar.computecanada.ca 5.14.0-362.24.2.el9_3.x86_64 x86_64
c 
c --- [ limit ] --------------------------------------------------------------
c 
c setting time limit to 1600 seconds real time (due to '-t 1600')
c 
c --- [ parsing input ] ------------------------------------------------------
c 
c reading DIMACS file from './data/cnfs//pdtpmsblackjack/pdtpmsblackjack.90.cnf'
c opening file to read './data/cnfs//pdtpmsblackjack/pdtpmsblackjack.90.cnf'
c found 'p cnf 179659 536925' header
c parsed 536925 clauses in 0.09 seconds process time
c 
c --- [ options ] ------------------------------------------------------------
c 
c   --compact=false                (different from default 'true')
c   --decompose=false              (different from default 'true')
c   --deduplicate=false            (different from default 'true')
c   --elim=false                   (different from default 'true')
c   --probe=false                  (different from default 'true')
c   --reduce=false                 (different from default 'true')
c   --subsume=false                (different from default 'true')
c   --ternary=false                (different from default 'true')
c   --transred=false               (different from default 'true')
c   --vivify=false                 (different from default 'true')
c 
c --- [ solving ] ------------------------------------------------------------
c 
c time measured in process time since initialization
c 
c  seconds  reductions  redundant  irredundant
c         MB    restarts       trail       variables
c          level   conflicts       glue         remaining
c 
c *  0.09 73  0 0   0    0    0  0% 0 403976 90148 50%
c {  0.09 73  0 0   0    0    0  0% 0 403976 90148 50%
c i  0.12 74 119 0  17  302  283 54% 3 403976 90147 50%
c i  0.12 74 119 0  17  303  283 54% 3 403976 90144 50%
c i  0.12 74 118 0  18  304  283 54% 3 403976 90141 50%
c i  0.12 74 118 0  18  305  283 54% 3 403976 90138 50%
c i  0.12 74 118 0  18  306  283 54% 3 403976 90135 50%
c i  0.16 74 113 0  63  475  431 54% 3 403976 90132 50%
c i  0.23 75 258 0  68  786  740 63% 2 403976 90128 50%
c }  0.28 75 324 0  78 1002  944 67% 2 403976 90124 50%
c [  0.28 75  0 0  78 1002  944  0% 0 403976 90124 50%
c O  0.28 75  8 0  78 1003  945 51% 3 403976 90124 50%
c i  0.39 76 276 0  78 1652 1565 81% 3 403976 89727 50%
c i  0.39 76 275 0  78 1655 1567 81% 3 403976 89305 50%
c ]  0.39 76 274 0  78 1657 1567 81% 3 403976 88722 49%
c 0  0.39 76 274 0  78 1657 1567 81% 3 403976 88722 49%
c 
c --- [ result ] -------------------------------------------------------------
c 
s UNSATISFIABLE
c 
c --- [ run-time profiling ] -------------------------------------------------
c 
c process time taken by individual solving procedures
c (percentage relative to process time for solving)
c 
c         0.30   99.96% search
c         0.19   62.95% unstable
c         0.11   36.64% stable
c         0.09   30.88% parse
c         0.00    0.36% lucky
c         0.00    0.00% simplify
c   =================================
c         0.30   76.26% solve
c 
c last line shows process time for solving
c (percentage relative to total process time)
c 
c --- [ statistics ] ---------------------------------------------------------
c 
c chronological:               926        55.88 %  of conflicts
c conflicts:                  1657      5588.17    per second
c decisions:                 15625     52694.77    per second
c fixed:                     90937        50.62 %  of all variables
c learned:                    1591        96.02 %  per conflict
c learned_lits:              30895       100.00 %  learned literals
c minimized:                     0         0.00 %  learned literals
c shrunken:                   1062         3.44 %  learned literals
c minishrunken:               1710         5.53 %  learned literals
c otfs:                          8         0.48 %  of conflict
c propagations:            1906892         6.43 M  per second
c rephased:                      1      1657.00    interval
c restarts:                     78        21.24    interval
c stabilizing:                   1        39.53 %  of conflicts
c subsumed:                     14         0.00 %  of all clauses
c strengthened:                  8         0.00 %  of all clauses
c 
c seconds are measured in process time for solving
c 
c --- [ resources ] ----------------------------------------------------------
c 
c total process time since initialization:         0.39    seconds
c total real time since initialization:            0.39    seconds
c maximum resident set size of process:           74.65    MB
c 
c --- [ shutting down ] ------------------------------------------------------
c 
c exit 20
